Argumentos: 
./solver.release -i 28 -t 86400 -a 7 -h 86400 -w Testes/Marcos-i28 -m modelo.mod -o modelo.mod 
Seed: 1622676164
hidden-TXT/Sc-n110w4.txt
hidden-TXT/H0-n110w4-2.txt
hidden-TXT/WD-n110w4-5.txt hidden-TXT/WD-n110w4-1.txt hidden-TXT/WD-n110w4-3.txt hidden-TXT/WD-n110w4-0.txt 
Reading model section from modelo.mod...
285 lines were read
Reading data section from Testes/Marcos-i28/28.dat...
19773 lines were read
Generating obj...
Generating H1turnoDia...
Generating H2coberturaMinima...
Generating H3AsucessaoTurnos...
Generating H3BsucessaoTurnos...
Generating H4qualificacao...
Generating S1coberturaOtima...
Generating S2aux1...
Generating S2aux2...
Generating S2aux3...
Generating S2aux7...
Generating S2a...
Generating S2S3aux4...
Generating S2S3aux5...
Generating S2S3aux6...
Generating S2S3aux8...
Generating S2c...
Generating S2chist...
Generating S2d...
Generating S2dHist...
Generating S2b...
Generating S2bHist...
Generating auxS5...
Generating S6a...
Generating S6b...
Generating auxS7...
Generating S7...
Model has been successfully generated
Writing problem data to `Testes/Marcos-i28/28.lp'...
9500825 lines were written
CPX0000  Presolve has eliminated 255868 rows and 289874 columns...
CPX0000  Presolve has improved bounds 55599 times...
CPX0000  Tried aggregator 2 times.
CPX0000  Aggregator has done 27761 substitutions...
CPX0000  MIP Presolve eliminated 265311 rows and 290223 columns.
CPX0000  MIP Presolve modified 6128 coefficients.
CPX0000  Aggregator did 27761 substitutions.
CPX0000  Reduced MIP has 3181105 rows, 300631 columns, and 9914206 nonzeros.
CPX0000  Reduced MIP has 299918 binaries, 713 generals, 0 SOSs, and 0 indicators.
CPX0000  Presolve time = 47.66 sec. (29695.16 ticks)
CPX0000  Probing time = 0.76 sec. (139.95 ticks)
CPX0000  Tried aggregator 1 time.
CPX0000  Presolve has eliminated 64 rows and 64 columns...
CPX0000  Presolve has improved bounds 27 times...
CPX0000  MIP Presolve eliminated 64 rows and 64 columns.
CPX0000  MIP Presolve modified 470 coefficients.
CPX0000  Reduced MIP has 3181041 rows, 300567 columns, and 9913810 nonzeros.
CPX0000  Reduced MIP has 299918 binaries, 649 generals, 0 SOSs, and 0 indicators.
CPX0000  Presolve time = 30.70 sec. (18517.23 ticks)
CPX0000  Probing time = 0.78 sec. (142.82 ticks)
CPX0000  Clique table members: 2670065.
CPX0000  MIP emphasis: balance optimality and feasibility.
CPX0000  MIP search method: dynamic search.
CPX0000  Parallel mode: none, using 1 thread.
CPX0000  Root relaxation solution time = 86268.59 sec. (15755924.84 ticks)
CPX0000
CPX0000          Nodes                                         Cuts/
CPX0000     Node  Left     Objective  IInf  Best Integer    Best Bound    ItCnt     Gap
CPX0000
CPX0000        0     0  -1.00000e+37     0                     20.0000  6976447
CPX0000
CPX0000  Root node processing (before b&c):
CPX0000    Real time             = 86404.91 sec. (15832353.25 ticks)
CPX0000  Sequential b&c:
CPX0000    Real time             =    0.00 sec. (0.00 ticks)
CPX0000                            ------------
CPX0000  Total (root+branch&cut) = 86404.91 sec. (15832353.25 ticks)
H2 understaffing: 905
H3 shiftTypeSuccessions: 19
S1 optimalCoverage: 480
S2a consecutiveShift: 38535 = (21,2548 )
S2b consecutiveWorkingDays: 77160 = ( 0,2572 )
S3 consecutiveDaysOff: 630 = ( 21,0 )
S4 preferences: 1440
S5 completeWeekend: 0
S6 totalAssignments: 32600
S7 totalWorkingWeekeends: 8280
 

Cost Solution: 1083125

File "Solucao/n110w4-2-5-1-3-0_w0.txt", unknown skill: HN_0 for nurse HN_0 on day Monday for shift type Early

     Syntax:
     java -jar validator.jar --sce scenario --his history --weeks week_1...week_n --sols sol_1...sol_n [--penaltyonly] [--out outFile] [--verbose]

          scenario           the file containing the scenario
          history            the file containing the initial history
          week_1...week_n    the files containing the week data
          sol_1...sol_n      the files containing the solutions for the weeks
          --penaltyonly      option to print only the penalty value
          --out outfile      option: print output to outfile
          --verbose          option: prints a detailed report of violations per nurse
